
Gurobi 9.5.1 (linux64) logging started Sun Jul  3 11:36:29 2022

Set parameter LogFile to value "../results/logs/log_Gowalla_edges_3_250_2022_07_03_11_15.log"
Gurobi Optimizer version 9.5.1 build v9.5.1rc2 (linux64)
Thread count: 8 physical cores, 8 logical processors, using up to 8 threads
Optimize a model with 37419 rows, 393182 columns and 242103 nonzeros
Model fingerprint: 0xfbf4a529
Coefficient statistics:
  Matrix range     [1e+00, 3e+00]
  Objective range  [1e+00, 1e+00]
  Bounds range     [1e+00, 1e+00]
  RHS range        [1e+00, 2e+02]

Concurrent LP optimizer: primal simplex, dual simplex, and barrier
Showing barrier log only...

Presolve removed 9188 rows and 370086 columns
Presolve time: 0.26s
Presolved: 28231 rows, 23096 columns, 101172 nonzeros

Ordering time: 0.00s

Barrier statistics:
 AA' NZ     : 3.524e+04
 Factor NZ  : 6.548e+04 (roughly 6 MB of memory)
 Factor Ops : 6.837e+05 (less than 1 second per iteration)
 Threads    : 1

                  Objective                Residual
Iter       Primal          Dual         Primal    Dual     Compl     Time
   0   1.54919547e+05  1.31723282e+06  1.84e+03 2.09e+02  2.69e+03     0s
   1   1.25957268e+05  2.45637964e+06  6.06e+02 5.68e-13  7.99e+02     0s
   2   1.15066678e+05  1.74919698e+06  1.40e+02 4.55e-13  2.05e+02     0s
   3   1.12503306e+05  8.66868818e+05  3.27e+01 1.53e-12  5.79e+01     0s
   4   1.11878884e+05  3.26577738e+05  4.90e+00 3.52e-12  1.25e+01     0s
   5   1.11987450e+05  2.53543276e+05  1.72e-01 2.92e-12  7.00e+00     0s
   6   1.12103710e+05  1.26435479e+05  9.20e-03 1.27e-12  7.04e-01     0s
   7   1.12446875e+05  1.15060062e+05  3.54e-04 2.70e-13  1.28e-01     0s
   8   1.12600052e+05  1.14062636e+05  1.74e-04 1.56e-13  7.18e-02     0s
   9   1.12697751e+05  1.13746996e+05  1.11e-04 1.14e-13  5.15e-02     0s
  10   1.12848765e+05  1.13312182e+05  3.46e-05 3.67e-14  2.27e-02     0s
  11   1.12938366e+05  1.13245731e+05  9.30e-06 3.30e-14  1.51e-02     0s
  12   1.12959363e+05  1.13161393e+05  6.14e-06 1.78e-14  9.92e-03     0s
  13   1.12966521e+05  1.13094747e+05  5.21e-06 1.35e-14  6.29e-03     0s
  14   1.12997576e+05  1.13054958e+05  1.57e-06 1.08e-14  2.82e-03     0s
  15   1.13013154e+05  1.13016511e+05  1.12e-07 8.84e-15  1.65e-04     0s
  16   1.13014901e+05  1.13014935e+05  1.90e-10 7.11e-15  1.67e-06     0s
  17   1.13014904e+05  1.13014904e+05  1.07e-14 1.14e-13  1.67e-09     0s
  18   1.13014904e+05  1.13014904e+05  1.88e-12 2.13e-14  1.57e-12     0s

Barrier solved model in 18 iterations and 0.35 seconds (0.25 work units)
Optimal objective 1.13014904e+05

Crossover log...

    1537 DPushes remaining with DInf 0.0000000e+00                 0s
       0 DPushes remaining with DInf 0.0000000e+00                 0s

     192 PPushes remaining with PInf 0.0000000e+00                 0s
       0 PPushes remaining with PInf 0.0000000e+00                 0s

  Push phase complete: Pinf 0.0000000e+00, Dinf 3.2138181e-13      0s

Iteration    Objective       Primal Inf.    Dual Inf.      Time
     751    1.1301490e+05   0.000000e+00   0.000000e+00      0s

Use crossover to convert LP symmetric solution to basic solution...
Crossover log...

       0 DPushes remaining with DInf 0.0000000e+00                 0s

     379 PPushes remaining with PInf 0.0000000e+00                 0s
       0 PPushes remaining with PInf 0.0000000e+00                 0s

  Push phase complete: Pinf 0.0000000e+00, Dinf 1.7474910e-13      0s

Iteration    Objective       Primal Inf.    Dual Inf.      Time
    1166    1.1301490e+05   0.000000e+00   0.000000e+00      0s

Solved with primal simplex
Solved in 3332 iterations and 0.48 seconds (0.28 work units)
Optimal objective  1.130149045e+05
